     Program PWSCF v.7.3 starts on 31Dec2023 at  0:42:39

     Reading input from scf.in

     Current dimensions of program PWSCF are:
     Max number of different atomic species (ntypx) = 10
     Max number of k-points (npk) =  40000
     Max angular momentum in pseudopotentials (lmaxx) =  4

     K-points division:     npool     =      16
     R & G space division:  proc/nbgrp/npool/nimage =      32
     Subspace diagonalization in iterative solution of the eigenvalue problem:
     a serial algorithm will be used

     Message from routine divide_et_impera:
     suboptimal parallelization: some nodes have no k-points

     Using Slab Decomposition

     bravais-lattice index     =            4
     lattice parameter (alat)  =       6.0226  a.u.
     unit-cell volume          =    1780.7896 (a.u.)^3
     number of atoms/cell      =            3
     number of atomic types    =            2
     number of electrons       =        26.00
     number of Kohn-Sham states=           26
     kinetic-energy cutoff     =     125.0000  Ry
     charge density cutoff     =     500.0000  Ry
     scf convergence threshold =      1.0E-10
     mixing beta               =       0.7000
     number of iterations used =            8  plain     mixing
     Exchange-correlation= PBE
                           (   1   4   3   4   0   0   0)
     Non magnetic calculation with spin-orbit

     celldm(1)=   6.022557  celldm(2)=   0.000000  celldm(3)=   9.413241
     celldm(4)=   0.000000  celldm(5)=   0.000000  celldm(6)=   0.000000

     crystal axes: (cart. coord. in units of alat)
               a(1) = (   1.000000   0.000000   0.000000 )
               a(2) = (  -0.500000   0.866025   0.000000 )
               a(3) = (   0.000000   0.000000   9.413241 )

     reciprocal axes: (cart. coord. in units 2 pi/alat)
               b(1) = (  1.000000  0.577350 -0.000000 )
               b(2) = (  0.000000  1.154701  0.000000 )
               b(3) = (  0.000000 -0.000000  0.106233 )

     PseudoPot. # 1 for S  read from file:
     ./pseudo/S_PBE_FR.ABIv0.4.UPF
     MD5 check sum: cb31fbceef30f2df0e4149c1524337f0
     Pseudo is Norm-conserving + core correction, Zval =  6.0
     Generated using ONCVPSP code by D. R. Hamann
     Using radial grid of 1146 points, 10 beta functions with:
                l(1) =   0
                l(2) =   0
                l(3) =   1
                l(4) =   1
                l(5) =   1
                l(6) =   1
                l(7) =   2
                l(8) =   2
                l(9) =   2
               l(10) =   2

     PseudoPot. # 2 for W  read from file:
     ./pseudo/W_PBE_FR.ABIv0.4.UPF
     MD5 check sum: 61c661dd69dbff0e24f36fb4dbb42623
     Pseudo is Norm-conserving + core correction, Zval = 14.0
     Generated using ONCVPSP code by D. R. Hamann
     Using radial grid of 1396 points, 14 beta functions with:
                l(1) =   0
                l(2) =   0
                l(3) =   1
                l(4) =   1
                l(5) =   1
                l(6) =   1
                l(7) =   2
                l(8) =   2
                l(9) =   2
               l(10) =   2
               l(11) =   3
               l(12) =   3
               l(13) =   3
               l(14) =   3

     atomic species   valence    mass     pseudopotential
     S                 6.00    32.06500     S ( 1.00)
     W                14.00   183.84000     W ( 1.00)

     12 Sym. Ops. (no inversion) found

   Cartesian axes

     site n.     atom                  positions (alat units)
         1        W      tau(   1) = (   0.0000000   0.0000000   4.7066206  )
         2        S      tau(   2) = (  -0.0000000   0.5773503   5.1996910  )
         3        S      tau(   3) = (  -0.0000000   0.5773503   4.2135330  )

     number of k points=     7
                       cart. coord. in units 2pi/alat
        k(    1) = (   0.0000000   0.0000000   0.0000000), wk =   0.0277778
        k(    2) = (   0.0000000   0.1924501   0.0000000), wk =   0.1666667
        k(    3) = (   0.0000000   0.3849002   0.0000000), wk =   0.1666667
        k(    4) = (   0.0000000  -0.5773503   0.0000000), wk =   0.0833333
        k(    5) = (   0.1666667   0.2886751   0.0000000), wk =   0.1666667
        k(    6) = (   0.1666667   0.4811252   0.0000000), wk =   0.3333333
        k(    7) = (   0.3333333   0.5773503   0.0000000), wk =   0.0555556

     Initial potential from superposition of free atoms

     starting charge      25.9994, renormalised to      26.0000

     negative rho (up, down):  6.251E-06 0.000E+00
     Starting wfcs are   36 randomized atomic wfcs

     Self-consistent Calculation

     iteration #  1     ecut=   125.00 Ry     beta= 0.70
     Davidson diagonalization with overlap
     ethr =  1.00E-02,  avg # of iterations =  2.1

     Threshold (ethr) on eigenvalues was too large:
     Diagonalizing with lowered threshold

     Davidson diagonalization with overlap
     ethr =  3.26E-04,  avg # of iterations =  3.9

     total energy              =    -196.29493716 Ry
     estimated scf accuracy    <       0.09637146 Ry

[...]

     total energy              =    -196.32469623 Ry
     estimated scf accuracy    <          2.5E-10 Ry

     iteration # 15     ecut=   125.00 Ry     beta= 0.70
     Davidson diagonalization with overlap
     ethr =  9.44E-13,  avg # of iterations =  4.4

     End of self-consistent calculation

          k = 0.0000 0.0000 0.0000 ( 42165 PWs)   bands (ev):

   -76.1439 -76.1439 -47.5210 -47.5210 -37.7961 -37.7961 -37.6488 -37.6488
   -17.0436 -17.0436 -15.4221 -15.4221  -8.6335  -8.6335  -5.2962  -5.2962
    -5.0338  -5.0338  -4.4226  -4.4226  -4.0417  -4.0417  -3.8254  -3.8254
    -2.3305  -2.3305

[...]

          k = 0.3333 0.5774 0.0000 ( 41991 PWs)   bands (ev):

   -76.1252 -76.1252 -47.5957 -47.5868 -37.9678 -37.9207 -37.8389 -37.8231
   -14.7414 -14.5332 -14.5291 -14.5150  -8.0702  -8.0187  -7.6587  -7.6202
    -6.9816  -6.6456  -6.2736  -6.1658  -5.5518  -5.4987  -4.7265  -4.6568
    -2.5212  -2.0933

     highest occupied level (ev):    -2.0933

!    total energy              =    -196.32469623 Ry
     estimated scf accuracy    <          3.2E-12 Ry

     The total energy is the sum of the following terms:
     one-electron contribution =   -1936.51273100 Ry
     hartree contribution      =     966.03829185 Ry
     xc contribution           =     -45.97528287 Ry
     ewald contribution        =     820.12502580 Ry

     convergence has been achieved in  15 iterations

     Writing all to output data dir ./out/MOSE2_WS2.save/ :
     XML data file, charge density, pseudopotentials, collected wavefunctions

     General routines

     Parallel routines

   This run was terminated on:   0:42:48  31Dec2023

   JOB DONE.